SCIP version 5.0.0 [precision: 8 byte] [memory: block] [mode: optimized] [LP solver: NONE] [GitHash: 3bbd232]
Copyright (C) 2002-2017 Konrad-Zuse-Zentrum fuer Informationstechnik Berlin (ZIB)

External codes: 
  Readline EditLine w  GNU library for command line editing (gnu.org/s/readline)
  CppAD 20160000.1     Algorithmic Differentiation of C++ algorithms developed by B. Bell (www.coin-or.org/CppAD)
  ZLIB 1.2.5           General purpose compression library by J. Gailly and M. Adler (zlib.net)
  GMP 6.1.2            GNU Multiple Precision Arithmetic Library developed by T. Granlund (gmplib.org)

user parameter file <scip.set> not found - using default parameters

read problem <../../Split_data/output/breast/6/4_sample_breast.logreg>
============

File name	:	../../Split_data/output/breast/6/4_sample_breast.logreg
Problem name 	:	4_sample_breast
Number of data	:	155
Number of var	:	33
The given data has linear independence

[dim=1] time: 0.005517
[dim=2] time: 0.010455
[dim=3] time: 0.014812
[dim=4] time: 0.0191
[dim=5] time: 0.023313
[dim=6] time: 0.028636
[dim=7] time: 0.034113
[dim=8] time: 0.037472
[dim=9] time: 0.04118
[dim=10] time: 0.044531
[dim=11] time: 0.04787
[dim=12] Time of forward = 0.051089sec.
AIC: 122.588
k: 11

[dim=33] time: 0.015202
[dim=32] time: 0.032538
[dim=31] time: 0.049759
[dim=30] time: 0.068707
[dim=29] time: 0.088247
[dim=28] time: 0.098108
[dim=27] time: 0.108429
[dim=26] time: 0.115269
[dim=25] Time of backward = 0.12334sec.
AIC: 120.352
k: 26
